
Gurobi 13.0.2 (win64) logging started Thu Jul 23 12:26:00 2026

Set parameter LogFile to value "E:\codes\ExactEBRP\results\gf_gurobi_performance_recovery_round29\development\moderate_seed3302__c3_replica__60s\external\native_logs\R.0.0.1.1.0.0_lp.gurobi.log"
Gurobi Optimizer version 13.0.2 build v13.0.2rc1 (win64 - Windows 10.0 (19045.2))

CPU model: 12th Gen Intel(R) Core(TM) i7-12700KF, instruction set [SSE2|AVX|AVX2]
Thread count: 12 physical cores, 20 logical processors, using up to 1 threads

Non-default parameters:
TimeLimit  6.5281099999999981e-02
MIPGap  0
MIPGapAbs  0
LogToConsole  0
Threads  1

Optimize a model with 11903 rows, 3374 columns and 67328 nonzeros (Min)
Model fingerprint: 0x5b1b745e
Model has 21 linear objective coefficients
Coefficient statistics:
  Matrix range     [7e-03, 1e+04]
  Objective range  [7e-03, 1e+00]
  Bounds range     [4e-02, 3e+02]
  RHS range        [4e-02, 5e+04]

Presolve removed 654 rows and 102 columns
Presolve time: 0.04s
Presolved: 11249 rows, 3308 columns, 65306 nonzeros

Iteration    Objective       Primal Inf.    Dual Inf.      Time
       0    3.6681789e-02   2.513766e+02   0.000000e+00      0s

Stopped in 905 iterations and 0.07 seconds (0.19 work units)
Time limit reached

User-callback calls 1045, time in user-callback 0.00 sec
